p cnf 200 1110
-101 -56 0
-101 -42 0
-101 -22 0
-101 -74 0
-101 83 0
-101 -44 0
-101 -27 0
-101 -55 0
-101 57 0
-101 -10 0
101 56 42 22 74 -83 44 27 55 -57 10 0
-102 -76 0
-102 20 0
-102 -56 0
-102 -44 0
-102 -10 0
-102 -27 0
-102 -90 0
-102 93 0
-102 47 0
-102 94 0
102 76 -20 56 44 10 27 90 -93 -47 -94 0
-103 -38 0
-103 97 0
-103 -5 0
-103 -78 0
-103 35 0
-103 46 0
-103 -56 0
-103 -3 0
-103 -7 0
-103 -44 0
103 38 -97 5 78 -35 -46 56 3 7 44 0
-104 12 0
-104 2 0
-104 -100 0
-104 -56 0
-104 -8 0
-104 57 0
-104 58 0
-104 20 0
-104 -52 0
-104 -18 0
104 -12 -2 100 56 8 -57 -58 -20 52 18 0
-105 -35 0
-105 80 0
-105 91 0
-105 84 0
-105 -4 0
-105 -73 0
-105 -1 0
-105 -96 0
-105 23 0
-105 -38 0
105 35 -80 -91 -84 4 73 1 96 -23 38 0
-106 -50 0
-106 68 0
-106 -39 0
-106 62 0
-106 28 0
-106 47 0
-106 -92 0
-106 -79 0
-106 -77 0
-106 71 0
106 50 -68 39 -62 -28 -47 92 79 77 -71 0
-107 -77 0
-107 49 0
-107 -86 0
-107 -12 0
-107 33 0
-107 -55 0
-107 -64 0
-107 -91 0
-107 -45 0
-107 -9 0
107 77 -49 86 12 -33 55 64 91 45 9 0
-108 14 0
-108 -60 0
-108 56 0
-108 59 0
-108 -17 0
-108 95 0
-108 -65 0
-108 -76 0
-108 -58 0
-108 24 0
108 -14 60 -56 -59 17 -95 65 76 58 -24 0
-109 15 0
-109 72 0
-109 -79 0
-109 14 0
-109 -35 0
-109 -100 0
-109 -46 0
-109 -39 0
-109 26 0
-109 21 0
109 -15 -72 79 -14 35 100 46 39 -26 -21 0
-110 31 0
-110 -77 0
-110 72 0
-110 -48 0
-110 70 0
-110 2 0
-110 -1 0
-110 -32 0
-110 58 0
-110 -13 0
110 -31 77 -72 48 -70 -2 1 32 -58 13 0
101 102 103 104 105 106 107 108 109 110 0
-111 -18 0
-111 -57 0
-111 91 0
-111 81 0
-111 -4 0
-111 -34 0
-111 43 0
-111 29 0
-111 -14 0
-111 -12 0
111 18 57 -91 -81 4 34 -43 -29 14 12 0
-112 -26 0
-112 44 0
-112 63 0
-112 48 0
-112 43 0
-112 -77 0
-112 -55 0
-112 59 0
-112 -98 0
-112 -33 0
112 26 -44 -63 -48 -43 77 55 -59 98 33 0
-113 59 0
-113 -37 0
-113 12 0
-113 28 0
-113 1 0
-113 -80 0
-113 98 0
-113 33 0
-113 -39 0
-113 66 0
113 -59 37 -12 -28 -1 80 -98 -33 39 -66 0
-114 98 0
-114 -85 0
-114 -96 0
-114 -14 0
-114 25 0
-114 -36 0
-114 -38 0
-114 -59 0
-114 81 0
-114 -42 0
114 -98 85 96 14 -25 36 38 59 -81 42 0
-115 28 0
-115 29 0
-115 48 0
-115 -31 0
-115 17 0
-115 -65 0
-115 -15 0
-115 7 0
-115 -91 0
-115 89 0
115 -28 -29 -48 31 -17 65 15 -7 91 -89 0
-116 80 0
-116 30 0
-116 -93 0
-116 65 0
-116 -11 0
-116 -20 0
-116 -37 0
-116 86 0
-116 -84 0
-116 -74 0
116 -80 -30 93 -65 11 20 37 -86 84 74 0
-117 66 0
-117 -50 0
-117 71 0
-117 74 0
-117 34 0
-117 -37 0
-117 -78 0
-117 55 0
-117 -36 0
-117 -14 0
117 -66 50 -71 -74 -34 37 78 -55 36 14 0
-118 2 0
-118 -94 0
-118 -10 0
-118 -27 0
-118 29 0
-118 -77 0
-118 -92 0
-118 44 0
-118 53 0
-118 100 0
118 -2 94 10 27 -29 77 92 -44 -53 -100 0
-119 -87 0
-119 8 0
-119 7 0
-119 -54 0
-119 -35 0
-119 6 0
-119 57 0
-119 -52 0
-119 -17 0
-119 85 0
119 87 -8 -7 54 35 -6 -57 52 17 -85 0
-120 -4 0
-120 97 0
-120 21 0
-120 83 0
-120 82 0
-120 -79 0
-120 8 0
-120 73 0
-120 -72 0
-120 32 0
120 4 -97 -21 -83 -82 79 -8 -73 72 -32 0
111 112 113 114 115 116 117 118 119 120 0
-121 -37 0
-121 88 0
-121 -21 0
-121 14 0
-121 45 0
-121 70 0
-121 100 0
-121 -74 0
-121 42 0
-121 53 0
121 37 -88 21 -14 -45 -70 -100 74 -42 -53 0
-122 52 0
-122 8 0
-122 -9 0
-122 91 0
-122 -75 0
-122 68 0
-122 61 0
-122 5 0
-122 79 0
-122 26 0
122 -52 -8 9 -91 75 -68 -61 -5 -79 -26 0
-123 36 0
-123 75 0
-123 -37 0
-123 -40 0
-123 -94 0
-123 -52 0
-123 -49 0
-123 -83 0
-123 96 0
-123 66 0
123 -36 -75 37 40 94 52 49 83 -96 -66 0
-124 88 0
-124 66 0
-124 -53 0
-124 69 0
-124 -37 0
-124 -38 0
-124 -20 0
-124 77 0
-124 -67 0
-124 26 0
124 -88 -66 53 -69 37 38 20 -77 67 -26 0
-125 36 0
-125 -39 0
-125 94 0
-125 -97 0
-125 -50 0
-125 56 0
-125 -89 0
-125 10 0
-125 30 0
-125 -73 0
125 -36 39 -94 97 50 -56 89 -10 -30 73 0
-126 92 0
-126 -6 0
-126 -37 0
-126 35 0
-126 10 0
-126 26 0
-126 -8 0
-126 12 0
-126 84 0
-126 -48 0
126 -92 6 37 -35 -10 -26 8 -12 -84 48 0
-127 31 0
-127 -43 0
-127 32 0
-127 -58 0
-127 -2 0
-127 -72 0
-127 23 0
-127 -50 0
-127 87 0
-127 -49 0
127 -31 43 -32 58 2 72 -23 50 -87 49 0
-128 12 0
-128 70 0
-128 61 0
-128 -2 0
-128 98 0
-128 69 0
-128 -15 0
-128 -81 0
-128 -72 0
-128 -8 0
128 -12 -70 -61 2 -98 -69 15 81 72 8 0
-129 -22 0
-129 70 0
-129 -27 0
-129 93 0
-129 -74 0
-129 -20 0
-129 -94 0
-129 43 0
-129 -1 0
-129 97 0
129 22 -70 27 -93 74 20 94 -43 1 -97 0
-130 -1 0
-130 -28 0
-130 42 0
-130 -70 0
-130 -99 0
-130 -80 0
-130 -47 0
-130 32 0
-130 8 0
-130 24 0
130 1 28 -42 70 99 80 47 -32 -8 -24 0
121 122 123 124 125 126 127 128 129 130 0
-131 69 0
-131 58 0
-131 -72 0
-131 -34 0
-131 44 0
-131 30 0
-131 8 0
-131 -15 0
-131 81 0
-131 -22 0
131 -69 -58 72 34 -44 -30 -8 15 -81 22 0
-132 -97 0
-132 -82 0
-132 -62 0
-132 -83 0
-132 -89 0
-132 85 0
-132 -77 0
-132 95 0
-132 -60 0
-132 70 0
132 97 82 62 83 89 -85 77 -95 60 -70 0
-133 -30 0
-133 70 0
-133 41 0
-133 95 0
-133 42 0
-133 66 0
-133 -45 0
-133 -43 0
-133 -9 0
-133 -91 0
133 30 -70 -41 -95 -42 -66 45 43 9 91 0
-134 83 0
-134 -94 0
-134 8 0
-134 -10 0
-134 74 0
-134 12 0
-134 -87 0
-134 41 0
-134 62 0
-134 -54 0
134 -83 94 -8 10 -74 -12 87 -41 -62 54 0
-135 -20 0
-135 65 0
-135 46 0
-135 11 0
-135 -21 0
-135 62 0
-135 39 0
-135 -92 0
-135 29 0
-135 -7 0
135 20 -65 -46 -11 21 -62 -39 92 -29 7 0
-136 -3 0
-136 -28 0
-136 -63 0
-136 31 0
-136 18 0
-136 20 0
-136 -25 0
-136 -68 0
-136 88 0
-136 15 0
136 3 28 63 -31 -18 -20 25 68 -88 -15 0
-137 -86 0
-137 62 0
-137 -32 0
-137 11 0
-137 -100 0
-137 -92 0
-137 -50 0
-137 13 0
-137 -46 0
-137 -22 0
137 86 -62 32 -11 100 92 50 -13 46 22 0
-138 -25 0
-138 -24 0
-138 67 0
-138 -89 0
-138 70 0
-138 -27 0
-138 -40 0
-138 58 0
-138 87 0
-138 94 0
138 25 24 -67 89 -70 27 40 -58 -87 -94 0
-139 -21 0
-139 87 0
-139 -24 0
-139 -93 0
-139 -28 0
-139 8 0
-139 -84 0
-139 64 0
-139 -96 0
-139 50 0
139 21 -87 24 93 28 -8 84 -64 96 -50 0
-140 -37 0
-140 23 0
-140 -71 0
-140 27 0
-140 7 0
-140 -90 0
-140 32 0
-140 67 0
-140 100 0
-140 82 0
140 37 -23 71 -27 -7 90 -32 -67 -100 -82 0
131 132 133 134 135 136 137 138 139 140 0
-141 -7 0
-141 43 0
-141 -8 0
-141 27 0
-141 -3 0
-141 99 0
-141 59 0
-141 77 0
-141 -72 0
-141 -28 0
141 7 -43 8 -27 3 -99 -59 -77 72 28 0
-142 -1 0
-142 -43 0
-142 -51 0
-142 -6 0
-142 46 0
-142 30 0
-142 81 0
-142 42 0
-142 32 0
-142 18 0
142 1 43 51 6 -46 -30 -81 -42 -32 -18 0
-143 77 0
-143 36 0
-143 76 0
-143 -63 0
-143 66 0
-143 68 0
-143 41 0
-143 -5 0
-143 -57 0
-143 -52 0
143 -77 -36 -76 63 -66 -68 -41 5 57 52 0
-144 -11 0
-144 57 0
-144 55 0
-144 56 0
-144 -45 0
-144 -21 0
-144 36 0
-144 30 0
-144 -74 0
-144 71 0
144 11 -57 -55 -56 45 21 -36 -30 74 -71 0
-145 85 0
-145 -5 0
-145 64 0
-145 -57 0
-145 -62 0
-145 6 0
-145 -68 0
-145 90 0
-145 -40 0
-145 -33 0
145 -85 5 -64 57 62 -6 68 -90 40 33 0
-146 22 0
-146 100 0
-146 88 0
-146 60 0
-146 -18 0
-146 -55 0
-146 -86 0
-146 -84 0
-146 -93 0
-146 28 0
146 -22 -100 -88 -60 18 55 86 84 93 -28 0
-147 -43 0
-147 -25 0
-147 100 0
-147 10 0
-147 6 0
-147 54 0
-147 80 0
-147 42 0
-147 -86 0
-147 -34 0
147 43 25 -100 -10 -6 -54 -80 -42 86 34 0
-148 84 0
-148 -36 0
-148 -49 0
-148 -68 0
-148 -76 0
-148 -11 0
-148 -18 0
-148 -59 0
-148 16 0
-148 25 0
148 -84 36 49 68 76 11 18 59 -16 -25 0
-149 48 0
-149 -6 0
-149 90 0
-149 76 0
-149 68 0
-149 81 0
-149 83 0
-149 2 0
-149 -3 0
-149 -57 0
149 -48 6 -90 -76 -68 -81 -83 -2 3 57 0
-150 34 0
-150 -29 0
-150 -80 0
-150 47 0
-150 87 0
-150 -51 0
-150 -10 0
-150 -69 0
-150 -37 0
-150 22 0
150 -34 29 80 -47 -87 51 10 69 37 -22 0
141 142 143 144 145 146 147 148 149 150 0
-151 44 0
-151 -85 0
-151 3 0
-151 -27 0
-151 2 0
-151 72 0
-151 -46 0
-151 76 0
-151 47 0
-151 70 0
151 -44 85 -3 27 -2 -72 46 -76 -47 -70 0
-152 -53 0
-152 -71 0
-152 -41 0
-152 -83 0
-152 78 0
-152 75 0
-152 76 0
-152 62 0
-152 47 0
-152 94 0
152 53 71 41 83 -78 -75 -76 -62 -47 -94 0
-153 -62 0
-153 34 0
-153 -77 0
-153 73 0
-153 45 0
-153 -38 0
-153 -10 0
-153 -59 0
-153 -79 0
-153 -65 0
153 62 -34 77 -73 -45 38 10 59 79 65 0
-154 -24 0
-154 58 0
-154 -8 0
-154 2 0
-154 -3 0
-154 16 0
-154 82 0
-154 -57 0
-154 -95 0
-154 -99 0
154 24 -58 8 -2 3 -16 -82 57 95 99 0
-155 -52 0
-155 -59 0
-155 63 0
-155 -25 0
-155 84 0
-155 -82 0
-155 90 0
-155 -56 0
-155 76 0
-155 94 0
155 52 59 -63 25 -84 82 -90 56 -76 -94 0
-156 -20 0
-156 -50 0
-156 -100 0
-156 60 0
-156 -6 0
-156 82 0
-156 94 0
-156 -98 0
-156 -53 0
-156 -49 0
156 20 50 100 -60 6 -82 -94 98 53 49 0
-157 27 0
-157 -76 0
-157 63 0
-157 93 0
-157 89 0
-157 53 0
-157 -14 0
-157 -12 0
-157 -99 0
-157 71 0
157 -27 76 -63 -93 -89 -53 14 12 99 -71 0
-158 62 0
-158 -13 0
-158 -49 0
-158 18 0
-158 23 0
-158 -74 0
-158 46 0
-158 -53 0
-158 67 0
-158 -84 0
158 -62 13 49 -18 -23 74 -46 53 -67 84 0
-159 9 0
-159 -3 0
-159 84 0
-159 -46 0
-159 30 0
-159 79 0
-159 24 0
-159 2 0
-159 19 0
-159 -51 0
159 -9 3 -84 46 -30 -79 -24 -2 -19 51 0
-160 95 0
-160 53 0
-160 -48 0
-160 -44 0
-160 -20 0
-160 18 0
-160 -89 0
-160 72 0
-160 63 0
-160 84 0
160 -95 -53 48 44 20 -18 89 -72 -63 -84 0
151 152 153 154 155 156 157 158 159 160 0
-161 14 0
-161 -20 0
-161 -15 0
-161 -27 0
-161 -99 0
-161 -70 0
-161 -42 0
-161 58 0
-161 -28 0
-161 32 0
161 -14 20 15 27 99 70 42 -58 28 -32 0
-162 -44 0
-162 -9 0
-162 -46 0
-162 -41 0
-162 -71 0
-162 19 0
-162 -42 0
-162 -88 0
-162 47 0
-162 77 0
162 44 9 46 41 71 -19 42 88 -47 -77 0
-163 -11 0
-163 12 0
-163 -15 0
-163 -40 0
-163 20 0
-163 45 0
-163 16 0
-163 34 0
-163 22 0
-163 -57 0
163 11 -12 15 40 -20 -45 -16 -34 -22 57 0
-164 -12 0
-164 5 0
-164 58 0
-164 -39 0
-164 47 0
-164 -35 0
-164 -40 0
-164 -91 0
-164 85 0
-164 -54 0
164 12 -5 -58 39 -47 35 40 91 -85 54 0
-165 29 0
-165 91 0
-165 -90 0
-165 97 0
-165 41 0
-165 -47 0
-165 -48 0
-165 -49 0
-165 33 0
-165 85 0
165 -29 -91 90 -97 -41 47 48 49 -33 -85 0
-166 21 0
-166 -77 0
-166 -50 0
-166 22 0
-166 17 0
-166 61 0
-166 24 0
-166 -26 0
-166 -67 0
-166 14 0
166 -21 77 50 -22 -17 -61 -24 26 67 -14 0
-167 59 0
-167 79 0
-167 96 0
-167 20 0
-167 17 0
-167 83 0
-167 62 0
-167 -6 0
-167 57 0
-167 -45 0
167 -59 -79 -96 -20 -17 -83 -62 6 -57 45 0
-168 -27 0
-168 -17 0
-168 57 0
-168 -47 0
-168 10 0
-168 69 0
-168 89 0
-168 50 0
-168 -96 0
-168 98 0
168 27 17 -57 47 -10 -69 -89 -50 96 -98 0
-169 -60 0
-169 -4 0
-169 48 0
-169 -51 0
-169 14 0
-169 -36 0
-169 6 0
-169 86 0
-169 -20 0
-169 65 0
169 60 4 -48 51 -14 36 -6 -86 20 -65 0
-170 40 0
-170 -65 0
-170 37 0
-170 -19 0
-170 -43 0
-170 -46 0
-170 4 0
-170 72 0
-170 11 0
-170 -56 0
170 -40 65 -37 19 43 46 -4 -72 -11 56 0
161 162 163 164 165 166 167 168 169 170 0
-171 21 0
-171 -8 0
-171 35 0
-171 -95 0
-171 -50 0
-171 86 0
-171 -48 0
-171 17 0
-171 31 0
-171 15 0
171 -21 8 -35 95 50 -86 48 -17 -31 -15 0
-172 42 0
-172 -69 0
-172 -22 0
-172 -84 0
-172 -97 0
-172 -4 0
-172 80 0
-172 -91 0
-172 100 0
-172 30 0
172 -42 69 22 84 97 4 -80 91 -100 -30 0
-173 27 0
-173 -96 0
-173 29 0
-173 12 0
-173 -75 0
-173 48 0
-173 -84 0
-173 -80 0
-173 -5 0
-173 -34 0
173 -27 96 -29 -12 75 -48 84 80 5 34 0
-174 27 0
-174 69 0
-174 5 0
-174 56 0
-174 81 0
-174 -7 0
-174 -53 0
-174 85 0
-174 -26 0
-174 35 0
174 -27 -69 -5 -56 -81 7 53 -85 26 -35 0
-175 -79 0
-175 82 0
-175 -56 0
-175 -72 0
-175 95 0
-175 12 0
-175 88 0
-175 83 0
-175 -97 0
-175 -47 0
175 79 -82 56 72 -95 -12 -88 -83 97 47 0
-176 -85 0
-176 15 0
-176 -83 0
-176 94 0
-176 44 0
-176 9 0
-176 -40 0
-176 88 0
-176 82 0
-176 37 0
176 85 -15 83 -94 -44 -9 40 -88 -82 -37 0
-177 -6 0
-177 96 0
-177 -68 0
-177 -59 0
-177 -29 0
-177 37 0
-177 -81 0
-177 -38 0
-177 25 0
-177 -14 0
177 6 -96 68 59 29 -37 81 38 -25 14 0
-178 -26 0
-178 3 0
-178 -95 0
-178 -71 0
-178 37 0
-178 -79 0
-178 35 0
-178 -9 0
-178 -30 0
-178 64 0
178 26 -3 95 71 -37 79 -35 9 30 -64 0
-179 -71 0
-179 89 0
-179 -49 0
-179 80 0
-179 94 0
-179 53 0
-179 13 0
-179 81 0
-179 86 0
-179 10 0
179 71 -89 49 -80 -94 -53 -13 -81 -86 -10 0
-180 81 0
-180 62 0
-180 10 0
-180 64 0
-180 51 0
-180 -79 0
-180 -9 0
-180 28 0
-180 -91 0
-180 16 0
180 -81 -62 -10 -64 -51 79 9 -28 91 -16 0
171 172 173 174 175 176 177 178 179 180 0
-181 -40 0
-181 -66 0
-181 14 0
-181 80 0
-181 -76 0
-181 -48 0
-181 63 0
-181 20 0
-181 -77 0
-181 64 0
181 40 66 -14 -80 76 48 -63 -20 77 -64 0
-182 21 0
-182 46 0
-182 -8 0
-182 7 0
-182 15 0
-182 -84 0
-182 33 0
-182 -98 0
-182 5 0
-182 -68 0
182 -21 -46 8 -7 -15 84 -33 98 -5 68 0
-183 69 0
-183 -18 0
-183 -43 0
-183 88 0
-183 93 0
-183 17 0
-183 -40 0
-183 66 0
-183 81 0
-183 -59 0
183 -69 18 43 -88 -93 -17 40 -66 -81 59 0
-184 83 0
-184 36 0
-184 -98 0
-184 34 0
-184 -53 0
-184 -32 0
-184 -8 0
-184 9 0
-184 -44 0
-184 28 0
184 -83 -36 98 -34 53 32 8 -9 44 -28 0
-185 -75 0
-185 -64 0
-185 -14 0
-185 -87 0
-185 70 0
-185 -1 0
-185 15 0
-185 74 0
-185 19 0
-185 -88 0
185 75 64 14 87 -70 1 -15 -74 -19 88 0
-186 -66 0
-186 48 0
-186 31 0
-186 16 0
-186 -72 0
-186 62 0
-186 28 0
-186 96 0
-186 86 0
-186 43 0
186 66 -48 -31 -16 72 -62 -28 -96 -86 -43 0
-187 -81 0
-187 26 0
-187 11 0
-187 -63 0
-187 -44 0
-187 -34 0
-187 -19 0
-187 -92 0
-187 100 0
-187 -28 0
187 81 -26 -11 63 44 34 19 92 -100 28 0
-188 48 0
-188 32 0
-188 -54 0
-188 -1 0
-188 -25 0
-188 84 0
-188 -16 0
-188 61 0
-188 -38 0
-188 -60 0
188 -48 -32 54 1 25 -84 16 -61 38 60 0
-189 49 0
-189 36 0
-189 52 0
-189 -59 0
-189 -90 0
-189 -35 0
-189 71 0
-189 55 0
-189 -99 0
-189 47 0
189 -49 -36 -52 59 90 35 -71 -55 99 -47 0
-190 -94 0
-190 26 0
-190 66 0
-190 47 0
-190 -16 0
-190 31 0
-190 -98 0
-190 -92 0
-190 74 0
-190 -58 0
190 94 -26 -66 -47 16 -31 98 92 -74 58 0
181 182 183 184 185 186 187 188 189 190 0
-191 53 0
-191 49 0
-191 -93 0
-191 38 0
-191 -9 0
-191 23 0
-191 -55 0
-191 97 0
-191 100 0
-191 -84 0
191 -53 -49 93 -38 9 -23 55 -97 -100 84 0
-192 71 0
-192 2 0
-192 53 0
-192 74 0
-192 11 0
-192 58 0
-192 -79 0
-192 -80 0
-192 45 0
-192 -100 0
192 -71 -2 -53 -74 -11 -58 79 80 -45 100 0
-193 1 0
-193 -61 0
-193 -81 0
-193 7 0
-193 40 0
-193 -32 0
-193 -63 0
-193 91 0
-193 -89 0
-193 -100 0
193 -1 61 81 -7 -40 32 63 -91 89 100 0
-194 34 0
-194 -35 0
-194 24 0
-194 61 0
-194 -89 0
-194 85 0
-194 -25 0
-194 -49 0
-194 -45 0
-194 -44 0
194 -34 35 -24 -61 89 -85 25 49 45 44 0
-195 -62 0
-195 -28 0
-195 -60 0
-195 -89 0
-195 -58 0
-195 -64 0
-195 71 0
-195 70 0
-195 -84 0
-195 -73 0
195 62 28 60 89 58 64 -71 -70 84 73 0
-196 28 0
-196 77 0
-196 69 0
-196 -97 0
-196 -76 0
-196 -13 0
-196 -89 0
-196 29 0
-196 50 0
-196 -7 0
196 -28 -77 -69 97 76 13 89 -29 -50 7 0
-197 74 0
-197 73 0
-197 98 0
-197 -78 0
-197 -58 0
-197 79 0
-197 -83 0
-197 -20 0
-197 -50 0
-197 64 0
197 -74 -73 -98 78 58 -79 83 20 50 -64 0
-198 -25 0
-198 -26 0
-198 49 0
-198 65 0
-198 2 0
-198 -59 0
-198 88 0
-198 56 0
-198 -12 0
-198 -9 0
198 25 26 -49 -65 -2 59 -88 -56 12 9 0
-199 -36 0
-199 19 0
-199 17 0
-199 53 0
-199 66 0
-199 23 0
-199 89 0
-199 67 0
-199 78 0
-199 -26 0
199 36 -19 -17 -53 -66 -23 -89 -67 -78 26 0
-200 56 0
-200 51 0
-200 -72 0
-200 -31 0
-200 -69 0
-200 -77 0
-200 -33 0
-200 -14 0
-200 -55 0
-200 -65 0
200 -56 -51 72 31 69 77 33 14 55 65 0
191 192 193 194 195 196 197 198 199 200 0
